50

99 3 157
96 1 219
94 27 160
94 6 241
90 13 171
90 24 274
90 16 154
90 27 228
87 19 241
86 10 255
85 21 218
85 19 141
84 1 258
84 24 279
84 10 186
84 6 273
84 6 195
83 3 156
81 13 220
81 11 181
79 11 296
71 20 295
71 5 143
70 9 178
65 4 298
65 5 244
65 3 289
63 5 202
62 3 211
59 2 275
51 13 271
51 0 300
50 8 264
49 3 158
49 4 166
49 15 200
47 3 258
45 10 160
44 1 141
43 6 267
41 3 215
35 5 168
35 5 176
33 9 300
31 1 249
27 6 283
23 7 279
23 4 198
22 6 279
22 2 271
